14
-1 29 84 40 43 93 88 50 59 56 55 85 31 20 
51 -1 32 0 4 59 95 31 57 7 62 96 21 72 
96 43 -1 45 95 29 73 53 68 35 22 75 19 6 
89 66 15 -1 72 67 52 86 11 7 85 9 74 59 
57 96 68 0 -1 41 27 8 41 19 70 8 43 81 
36 65 69 16 79 -1 95 11 72 70 72 78 28 85 
35 64 94 60 9 90 -1 12 81 19 50 1 93 95 
41 22 51 36 60 63 75 -1 29 85 0 92 6 39 
27 38 88 85 64 52 67 62 -1 5 70 8 73 56 
90 83 42 48 0 15 79 8 97 -1 75 54 94 7 
81 45 45 88 51 43 8 11 16 96 -1 85 59 67 
16 97 19 23 76 21 31 87 0 57 98 -1 28 34 
34 84 81 28 29 69 19 58 30 29 29 75 -1 53 
90 87 55 65 29 37 69 21 71 34 54 48 27 -1 
